p cnf 745 2429
2 -5 51 0
-2 -5 -51 0
2 5 -51 0
-2 5 51 0
7 8 52 0
-7 8 -52 0
7 -8 -52 0
-7 -8 52 0
-10 -14 53 0
10 -14 -53 0
-10 14 -53 0
10 14 53 0
-15 16 54 0
15 16 -54 0
-15 -16 -54 0
15 -16 54 0
-17 21 55 0
17 21 -55 0
-17 -21 -55 0
17 -21 55 0
-22 23 56 0
22 23 -56 0
-22 -23 -56 0
22 -23 56 0
-27 -29 57 0
27 -29 -57 0
-27 29 -57 0
27 29 57 0
30 -33 58 0
-30 -33 -58 0
30 33 -58 0
-30 33 58 0
35 -36 59 0
-35 -36 -59 0
35 36 -59 0
-35 36 59 0
38 39 60 0
-38 39 -60 0
38 -39 -60 0
-38 -39 60 0
-44 -45 61 0
44 -45 -61 0
-44 45 -61 0
44 45 61 0
-46 47 62 0
46 47 -62 0
-46 -47 -62 0
46 -47 62 0
50 -51 63 0
-50 -51 -63 0
50 51 -63 0
-50 51 63 0
52 -53 64 0
-52 -53 -64 0
52 53 -64 0
-52 53 64 0
54 -55 65 0
-54 -55 -65 0
54 55 -65 0
-54 55 65 0
56 -57 66 0
-56 -57 -66 0
56 57 -66 0
-56 57 66 0
58 -59 67 0
-58 -59 -67 0
58 59 -67 0
-58 59 67 0
60 -61 68 0
-60 -61 -68 0
60 61 -68 0
-60 61 68 0
62 -63 69 0
-62 -63 -69 0
62 63 -69 0
-62 63 69 0
64 -65 70 0
-64 -65 -70 0
64 65 -70 0
-64 65 70 0
66 -67 71 0
-66 -67 -71 0
66 67 -71 0
-66 67 71 0
68 -69 72 0
-68 -69 -72 0
68 69 -72 0
-68 69 72 0
70 -71 73 0
-70 -71 -73 0
70 71 -73 0
-70 71 73 0
72 73 0
-72 -73 0
4 7 74 0
-4 7 -74 0
4 -7 -74 0
-4 -7 74 0
8 11 75 0
-8 11 -75 0
8 -11 -75 0
-8 -11 75 0
-14 -15 76 0
14 -15 -76 0
-14 15 -76 0
14 15 76 0
-17 20 77 0
17 20 -77 0
-17 -20 -77 0
17 -20 77 0
-21 22 78 0
21 22 -78 0
-21 -22 -78 0
21 -22 78 0
24 -25 79 0
-24 -25 -79 0
24 25 -79 0
-24 25 79 0
26 28 80 0
-26 28 -80 0
26 -28 -80 0
-26 -28 80 0
-45 -47 81 0
45 -47 -81 0
-45 47 -81 0
45 47 81 0
74 -75 82 0
-74 -75 -82 0
74 75 -82 0
-74 75 82 0
76 -77 83 0
-76 -77 -83 0
76 77 -83 0
-76 77 83 0
78 -79 84 0
-78 -79 -84 0
78 79 -84 0
-78 79 84 0
80 -81 85 0
-80 -81 -85 0
80 81 -85 0
-80 81 85 0
82 -83 86 0
-82 -83 -86 0
82 83 -86 0
-82 83 86 0
84 -85 87 0
-84 -85 -87 0
84 85 -87 0
-84 85 87 0
86 87 0
-86 -87 0
-2 -3 88 0
2 -3 -88 0
-2 3 -88 0
2 3 88 0
-7 -11 89 0
7 -11 -89 0
-7 11 -89 0
7 11 89 0
14 -15 90 0
-14 -15 -90 0
14 15 -90 0
-14 15 90 0
16 -18 91 0
-16 -18 -91 0
16 18 -91 0
-16 18 91 0
-19 20 92 0
19 20 -92 0
-19 -20 -92 0
19 -20 92 0
-22 -25 93 0
22 -25 -93 0
-22 25 -93 0
22 25 93 0
-26 -33 94 0
26 -33 -94 0
-26 33 -94 0
26 33 94 0
35 36 95 0
-35 36 -95 0
35 -36 -95 0
-35 -36 95 0
39 -41 96 0
-39 -41 -96 0
39 41 -96 0
-39 41 96 0
-44 -45 97 0
44 -45 -97 0
-44 45 -97 0
44 45 97 0
-46 -49 98 0
46 -49 -98 0
-46 49 -98 0
46 49 98 0
88 -89 99 0
-88 -89 -99 0
88 89 -99 0
-88 89 99 0
90 -91 100 0
-90 -91 -100 0
90 91 -100 0
-90 91 100 0
92 -93 101 0
-92 -93 -101 0
92 93 -101 0
-92 93 101 0
94 -95 102 0
-94 -95 -102 0
94 95 -102 0
-94 95 102 0
96 -97 103 0
-96 -97 -103 0
96 97 -103 0
-96 97 103 0
98 -99 104 0
-98 -99 -104 0
98 99 -104 0
-98 99 104 0
100 -101 105 0
-100 -101 -105 0
100 101 -105 0
-100 101 105 0
102 -103 106 0
-102 -103 -106 0
102 103 -106 0
-102 103 106 0
-104 -105 106 0
104 -105 -106 0
-104 105 -106 0
104 105 106 0
1 -3 107 0
-1 -3 -107 0
1 3 -107 0
-1 3 107 0
-5 -7 108 0
5 -7 -108 0
-5 7 -108 0
5 7 108 0
-8 9 109 0
8 9 -109 0
-8 -9 -109 0
8 -9 109 0
10 -14 110 0
-10 -14 -110 0
10 14 -110 0
-10 14 110 0
-15 -20 111 0
15 -20 -111 0
-15 20 -111 0
15 20 111 0
-23 24 112 0
23 24 -112 0
-23 -24 -112 0
23 -24 112 0
28 -30 113 0
-28 -30 -113 0
28 30 -113 0
-28 30 113 0
31 -35 114 0
-31 -35 -114 0
31 35 -114 0
-31 35 114 0
40 -42 115 0
-40 -42 -115 0
40 42 -115 0
-40 42 115 0
-43 44 116 0
43 44 -116 0
-43 -44 -116 0
43 -44 116 0
46 49 117 0
-46 49 -117 0
46 -49 -117 0
-46 -49 117 0
107 -108 118 0
-107 -108 -118 0
107 108 -118 0
-107 108 118 0
109 -110 119 0
-109 -110 -119 0
109 110 -119 0
-109 110 119 0
111 -112 120 0
-111 -112 -120 0
111 112 -120 0
-111 112 120 0
113 -114 121 0
-113 -114 -121 0
113 114 -121 0
-113 114 121 0
115 -116 122 0
-115 -116 -122 0
115 116 -122 0
-115 116 122 0
117 -118 123 0
-117 -118 -123 0
117 118 -123 0
-117 118 123 0
119 -120 124 0
-119 -120 -124 0
119 120 -124 0
-119 120 124 0
121 -122 125 0
-121 -122 -125 0
121 122 -125 0
-121 122 125 0
-123 -124 125 0
123 -124 -125 0
-123 124 -125 0
123 124 125 0
-1 -2 126 0
1 -2 -126 0
-1 2 -126 0
1 2 126 0
3 7 127 0
-3 7 -127 0
3 -7 -127 0
-3 -7 127 0
-9 10 128 0
9 10 -128 0
-9 -10 -128 0
9 -10 128 0
-13 -14 129 0
13 -14 -129 0
-13 14 -129 0
13 14 129 0
18 -21 130 0
-18 -21 -130 0
18 21 -130 0
-18 21 130 0
23 24 131 0
-23 24 -131 0
23 -24 -131 0
-23 -24 131 0
-27 30 132 0
27 30 -132 0
-27 -30 -132 0
27 -30 132 0
31 -34 133 0
-31 -34 -133 0
31 34 -133 0
-31 34 133 0
-35 -39 134 0
35 -39 -134 0
-35 39 -134 0
35 39 134 0
40 -41 135 0
-40 -41 -135 0
40 41 -135 0
-40 41 135 0
-42 -44 136 0
42 -44 -136 0
-42 44 -136 0
42 44 136 0
125 -126 137 0
-125 -126 -137 0
125 126 -137 0
-125 126 137 0
127 -128 138 0
-127 -128 -138 0
127 128 -138 0
-127 128 138 0
129 -130 139 0
-129 -130 -139 0
129 130 -139 0
-129 130 139 0
131 -132 140 0
-131 -132 -140 0
131 132 -140 0
-131 132 140 0
133 -134 141 0
-133 -134 -141 0
133 134 -141 0
-133 134 141 0
135 -136 142 0
-135 -136 -142 0
135 136 -142 0
-135 136 142 0
137 -138 143 0
-137 -138 -143 0
137 138 -143 0
-137 138 143 0
139 -140 144 0
-139 -140 -144 0
139 140 -144 0
-139 140 144 0
141 -142 145 0
-141 -142 -145 0
141 142 -145 0
-141 142 145 0
-143 -144 145 0
143 -144 -145 0
-143 144 -145 0
143 144 145 0
1 -2 146 0
-1 -2 -146 0
1 2 -146 0
-1 2 146 0
5 7 147 0
-5 7 -147 0
5 -7 -147 0
-5 -7 147 0
9 11 148 0
-9 11 -148 0
9 -11 -148 0
-9 -11 148 0
13 -14 149 0
-13 -14 -149 0
13 14 -149 0
-13 14 149 0
16 -17 150 0
-16 -17 -150 0
16 17 -150 0
-16 17 150 0
18 19 151 0
-18 19 -151 0
18 -19 -151 0
-18 -19 151 0
-20 21 152 0
20 21 -152 0
-20 -21 -152 0
20 -21 152 0
-24 -27 153 0
24 -27 -153 0
-24 27 -153 0
24 27 153 0
28 -30 154 0
-28 -30 -154 0
28 30 -154 0
-28 30 154 0
-32 33 155 0
32 33 -155 0
-32 -33 -155 0
32 -33 155 0
-35 36 156 0
35 36 -156 0
-35 -36 -156 0
35 -36 156 0
-38 -42 157 0
38 -42 -157 0
-38 42 -157 0
38 42 157 0
43 44 158 0
-43 44 -158 0
43 -44 -158 0
-43 -44 158 0
46 -47 159 0
-46 -47 -159 0
46 47 -159 0
-46 47 159 0
146 -147 160 0
-146 -147 -160 0
146 147 -160 0
-146 147 160 0
148 -149 161 0
-148 -149 -161 0
148 149 -161 0
-148 149 161 0
150 -151 162 0
-150 -151 -162 0
150 151 -162 0
-150 151 162 0
152 -153 163 0
-152 -153 -163 0
152 153 -163 0
-152 153 163 0
154 -155 164 0
-154 -155 -164 0
154 155 -164 0
-154 155 164 0
156 -157 165 0
-156 -157 -165 0
156 157 -165 0
-156 157 165 0
158 -159 166 0
-158 -159 -166 0
158 159 -166 0
-158 159 166 0
160 -161 167 0
-160 -161 -167 0
160 161 -167 0
-160 161 167 0
162 -163 168 0
-162 -163 -168 0
162 163 -168 0
-162 163 168 0
164 -165 169 0
-164 -165 -169 0
164 165 -169 0
-164 165 169 0
166 -167 170 0
-166 -167 -170 0
166 167 -170 0
-166 167 170 0
168 -169 171 0
-168 -169 -171 0
168 169 -171 0
-168 169 171 0
170 171 0
-170 -171 0
2 -3 172 0
-2 -3 -172 0
2 3 -172 0
-2 3 172 0
4 -7 173 0
-4 -7 -173 0
4 7 -173 0
-4 7 173 0
8 10 174 0
-8 10 -174 0
8 -10 -174 0
-8 -10 174 0
12 13 175 0
-12 13 -175 0
12 -13 -175 0
-12 -13 175 0
17 -18 176 0
-17 -18 -176 0
17 18 -176 0
-17 18 176 0
-19 -21 177 0
19 -21 -177 0
-19 21 -177 0
19 21 177 0
22 24 178 0
-22 24 -178 0
22 -24 -178 0
-22 -24 178 0
25 -26 179 0
-25 -26 -179 0
25 26 -179 0
-25 26 179 0
30 -37 180 0
-30 -37 -180 0
30 37 -180 0
-30 37 180 0
-38 40 181 0
38 40 -181 0
-38 -40 -181 0
38 -40 181 0
-41 45 182 0
41 45 -182 0
-41 -45 -182 0
41 -45 182 0
47 50 183 0
-47 50 -183 0
47 -50 -183 0
-47 -50 183 0
172 -173 184 0
-172 -173 -184 0
172 173 -184 0
-172 173 184 0
174 -175 185 0
-174 -175 -185 0
174 175 -185 0
-174 175 185 0
176 -177 186 0
-176 -177 -186 0
176 177 -186 0
-176 177 186 0
178 -179 187 0
-178 -179 -187 0
178 179 -187 0
-178 179 187 0
180 -181 188 0
-180 -181 -188 0
180 181 -188 0
-180 181 188 0
182 -183 189 0
-182 -183 -189 0
182 183 -189 0
-182 183 189 0
184 -185 190 0
-184 -185 -190 0
184 185 -190 0
-184 185 190 0
186 -187 191 0
-186 -187 -191 0
186 187 -191 0
-186 187 191 0
188 -189 192 0
-188 -189 -192 0
188 189 -192 0
-188 189 192 0
-190 -191 192 0
190 -191 -192 0
-190 191 -192 0
190 191 192 0
-2 -4 193 0
2 -4 -193 0
-2 4 -193 0
2 4 193 0
-6 -7 194 0
6 -7 -194 0
-6 7 -194 0
6 7 194 0
14 17 195 0
-14 17 -195 0
14 -17 -195 0
-14 -17 195 0
19 20 196 0
-19 20 -196 0
19 -20 -196 0
-19 -20 196 0
21 23 197 0
-21 23 -197 0
21 -23 -197 0
-21 -23 197 0
24 -26 198 0
-24 -26 -198 0
24 26 -198 0
-24 26 198 0
29 30 199 0
-29 30 -199 0
29 -30 -199 0
-29 -30 199 0
-31 -32 200 0
31 -32 -200 0
-31 32 -200 0
31 32 200 0
-33 34 201 0
33 34 -201 0
-33 -34 -201 0
33 -34 201 0
-35 36 202 0
35 36 -202 0
-35 -36 -202 0
35 -36 202 0
-38 43 203 0
38 43 -203 0
-38 -43 -203 0
38 -43 203 0
44 -46 204 0
-44 -46 -204 0
44 46 -204 0
-44 46 204 0
192 -193 205 0
-192 -193 -205 0
192 193 -205 0
-192 193 205 0
194 -195 206 0
-194 -195 -206 0
194 195 -206 0
-194 195 206 0
196 -197 207 0
-196 -197 -207 0
196 197 -207 0
-196 197 207 0
198 -199 208 0
-198 -199 -208 0
198 199 -208 0
-198 199 208 0
200 -201 209 0
-200 -201 -209 0
200 201 -209 0
-200 201 209 0
202 -203 210 0
-202 -203 -210 0
202 203 -210 0
-202 203 210 0
204 -205 211 0
-204 -205 -211 0
204 205 -211 0
-204 205 211 0
206 -207 212 0
-206 -207 -212 0
206 207 -212 0
-206 207 212 0
208 -209 213 0
-208 -209 -213 0
208 209 -213 0
-208 209 213 0
210 -211 214 0
-210 -211 -214 0
210 211 -214 0
-210 211 214 0
212 -213 215 0
-212 -213 -215 0
212 213 -215 0
-212 213 215 0
214 215 0
-214 -215 0
1 -4 216 0
-1 -4 -216 0
1 4 -216 0
-1 4 216 0
5 8 217 0
-5 8 -217 0
5 -8 -217 0
-5 -8 217 0
-9 10 218 0
9 10 -218 0
-9 -10 -218 0
9 -10 218 0
15 -16 219 0
-15 -16 -219 0
15 16 -219 0
-15 16 219 0
17 -19 220 0
-17 -19 -220 0
17 19 -220 0
-17 19 220 0
-23 -24 221 0
23 -24 -221 0
-23 24 -221 0
23 24 221 0
-26 27 222 0
26 27 -222 0
-26 -27 -222 0
26 -27 222 0
28 29 223 0
-28 29 -223 0
28 -29 -223 0
-28 -29 223 0
-30 -32 224 0
30 -32 -224 0
-30 32 -224 0
30 32 224 0
35 -36 225 0
-35 -36 -225 0
35 36 -225 0
-35 36 225 0
38 39 226 0
-38 39 -226 0
38 -39 -226 0
-38 -39 226 0
44 -46 227 0
-44 -46 -227 0
44 46 -227 0
-44 46 227 0
-47 -49 228 0
47 -49 -228 0
-47 49 -228 0
47 49 228 0
215 -216 229 0
-215 -216 -229 0
215 216 -229 0
-215 216 229 0
217 -218 230 0
-217 -218 -230 0
217 218 -230 0
-217 218 230 0
219 -220 231 0
-219 -220 -231 0
219 220 -231 0
-219 220 231 0
221 -222 232 0
-221 -222 -232 0
221 222 -232 0
-221 222 232 0
223 -224 233 0
-223 -224 -233 0
223 224 -233 0
-223 224 233 0
225 -226 234 0
-225 -226 -234 0
225 226 -234 0
-225 226 234 0
227 -228 235 0
-227 -228 -235 0
227 228 -235 0
-227 228 235 0
229 -230 236 0
-229 -230 -236 0
229 230 -236 0
-229 230 236 0
231 -232 237 0
-231 -232 -237 0
231 232 -237 0
-231 232 237 0
233 -234 238 0
-233 -234 -238 0
233 234 -238 0
-233 234 238 0
235 -236 239 0
-235 -236 -239 0
235 236 -239 0
-235 236 239 0
237 -238 240 0
-237 -238 -240 0
237 238 -240 0
-237 238 240 0
239 240 0
-239 -240 0
-2 -3 241 0
2 -3 -241 0
-2 3 -241 0
2 3 241 0
5 -7 242 0
-5 -7 -242 0
5 7 -242 0
-5 7 242 0
-9 -10 243 0
9 -10 -243 0
-9 10 -243 0
9 10 243 0
14 16 244 0
-14 16 -244 0
14 -16 -244 0
-14 -16 244 0
18 -20 245 0
-18 -20 -245 0
18 20 -245 0
-18 20 245 0
22 -23 246 0
-22 -23 -246 0
22 23 -246 0
-22 23 246 0
25 -27 247 0
-25 -27 -247 0
25 27 -247 0
-25 27 247 0
28 -29 248 0
-28 -29 -248 0
28 29 -248 0
-28 29 248 0
31 34 249 0
-31 34 -249 0
31 -34 -249 0
-31 -34 249 0
35 -38 250 0
-35 -38 -250 0
35 38 -250 0
-35 38 250 0
-40 -41 251 0
40 -41 -251 0
-40 41 -251 0
40 41 251 0
-42 -46 252 0
42 -46 -252 0
-42 46 -252 0
42 46 252 0
47 -48 253 0
-47 -48 -253 0
47 48 -253 0
-47 48 253 0
240 -241 254 0
-240 -241 -254 0
240 241 -254 0
-240 241 254 0
242 -243 255 0
-242 -243 -255 0
242 243 -255 0
-242 243 255 0
244 -245 256 0
-244 -245 -256 0
244 245 -256 0
-244 245 256 0
246 -247 257 0
-246 -247 -257 0
246 247 -257 0
-246 247 257 0
248 -249 258 0
-248 -249 -258 0
248 249 -258 0
-248 249 258 0
250 -251 259 0
-250 -251 -259 0
250 251 -259 0
-250 251 259 0
252 -253 260 0
-252 -253 -260 0
252 253 -260 0
-252 253 260 0
254 -255 261 0
-254 -255 -261 0
254 255 -261 0
-254 255 261 0
256 -257 262 0
-256 -257 -262 0
256 257 -262 0
-256 257 262 0
258 -259 263 0
-258 -259 -263 0
258 259 -263 0
-258 259 263 0
260 -261 264 0
-260 -261 -264 0
260 261 -264 0
-260 261 264 0
262 -263 265 0
-262 -263 -265 0
262 263 -265 0
-262 263 265 0
264 265 0
-264 -265 0
-1 4 266 0
1 4 -266 0
-1 -4 -266 0
1 -4 266 0
7 8 267 0
-7 8 -267 0
7 -8 -267 0
-7 -8 267 0
10 14 268 0
-10 14 -268 0
10 -14 -268 0
-10 -14 268 0
-16 17 269 0
16 17 -269 0
-16 -17 -269 0
16 -17 269 0
-25 27 270 0
25 27 -270 0
-25 -27 -270 0
25 -27 270 0
-28 -29 271 0
28 -29 -271 0
-28 29 -271 0
28 29 271 0
-33 -35 272 0
33 -35 -272 0
-33 35 -272 0
33 35 272 0
36 38 273 0
-36 38 -273 0
36 -38 -273 0
-36 -38 273 0
40 -41 274 0
-40 -41 -274 0
40 41 -274 0
-40 41 274 0
-45 49 275 0
45 49 -275 0
-45 -49 -275 0
45 -49 275 0
265 -266 276 0
-265 -266 -276 0
265 266 -276 0
-265 266 276 0
267 -268 277 0
-267 -268 -277 0
267 268 -277 0
-267 268 277 0
269 -270 278 0
-269 -270 -278 0
269 270 -278 0
-269 270 278 0
271 -272 279 0
-271 -272 -279 0
271 272 -279 0
-271 272 279 0
273 -274 280 0
-273 -274 -280 0
273 274 -280 0
-273 274 280 0
275 -276 281 0
-275 -276 -281 0
275 276 -281 0
-275 276 281 0
277 -278 282 0
-277 -278 -282 0
277 278 -282 0
-277 278 282 0
279 -280 283 0
-279 -280 -283 0
279 280 -283 0
-279 280 283 0
-281 -282 283 0
281 -282 -283 0
-281 282 -283 0
281 282 283 0
-2 4 284 0
2 4 -284 0
-2 -4 -284 0
2 -4 284 0
5 6 285 0
-5 6 -285 0
5 -6 -285 0
-5 -6 285 0
-9 -11 286 0
9 -11 -286 0
-9 11 -286 0
9 11 286 0
14 18 287 0
-14 18 -287 0
14 -18 -287 0
-14 -18 287 0
-20 24 288 0
20 24 -288 0
-20 -24 -288 0
20 -24 288 0
-26 27 289 0
26 27 -289 0
-26 -27 -289 0
26 -27 289 0
-30 31 290 0
30 31 -290 0
-30 -31 -290 0
30 -31 290 0
36 38 291 0
-36 38 -291 0
36 -38 -291 0
-36 -38 291 0
-39 41 292 0
39 41 -292 0
-39 -41 -292 0
39 -41 292 0
-46 47 293 0
46 47 -293 0
-46 -47 -293 0
46 -47 293 0
283 -284 294 0
-283 -284 -294 0
283 284 -294 0
-283 284 294 0
285 -286 295 0
-285 -286 -295 0
285 286 -295 0
-285 286 295 0
287 -288 296 0
-287 -288 -296 0
287 288 -296 0
-287 288 296 0
289 -290 297 0
-289 -290 -297 0
289 290 -297 0
-289 290 297 0
291 -292 298 0
-291 -292 -298 0
291 292 -298 0
-291 292 298 0
293 -294 299 0
-293 -294 -299 0
293 294 -299 0
-293 294 299 0
295 -296 300 0
-295 -296 -300 0
295 296 -300 0
-295 296 300 0
297 -298 301 0
-297 -298 -301 0
297 298 -301 0
-297 298 301 0
-299 -300 301 0
299 -300 -301 0
-299 300 -301 0
299 300 301 0
2 4 302 0
-2 4 -302 0
2 -4 -302 0
-2 -4 302 0
5 -6 303 0
-5 -6 -303 0
5 6 -303 0
-5 6 303 0
-7 8 304 0
7 8 -304 0
-7 -8 -304 0
7 -8 304 0
-9 -12 305 0
9 -12 -305 0
-9 12 -305 0
9 12 305 0
-13 -14 306 0
13 -14 -306 0
-13 14 -306 0
13 14 306 0
15 -17 307 0
-15 -17 -307 0
15 17 -307 0
-15 17 307 0
18 20 308 0
-18 20 -308 0
18 -20 -308 0
-18 -20 308 0
22 26 309 0
-22 26 -309 0
22 -26 -309 0
-22 -26 309 0
-29 -30 310 0
29 -30 -310 0
-29 30 -310 0
29 30 310 0
-35 36 311 0
35 36 -311 0
-35 -36 -311 0
35 -36 311 0
37 39 312 0
-37 39 -312 0
37 -39 -312 0
-37 -39 312 0
44 45 313 0
-44 45 -313 0
44 -45 -313 0
-44 -45 313 0
-48 49 314 0
48 49 -314 0
-48 -49 -314 0
48 -49 314 0
301 -302 315 0
-301 -302 -315 0
301 302 -315 0
-301 302 315 0
303 -304 316 0
-303 -304 -316 0
303 304 -316 0
-303 304 316 0
305 -306 317 0
-305 -306 -317 0
305 306 -317 0
-305 306 317 0
307 -308 318 0
-307 -308 -318 0
307 308 -318 0
-307 308 318 0
309 -310 319 0
-309 -310 -319 0
309 310 -319 0
-309 310 319 0
311 -312 320 0
-311 -312 -320 0
311 312 -320 0
-311 312 320 0
313 -314 321 0
-313 -314 -321 0
313 314 -321 0
-313 314 321 0
315 -316 322 0
-315 -316 -322 0
315 316 -322 0
-315 316 322 0
317 -318 323 0
-317 -318 -323 0
317 318 -323 0
-317 318 323 0
319 -320 324 0
-319 -320 -324 0
319 320 -324 0
-319 320 324 0
321 -322 325 0
-321 -322 -325 0
321 322 -325 0
-321 322 325 0
323 -324 326 0
-323 -324 -326 0
323 324 -326 0
-323 324 326 0
325 326 0
-325 -326 0
-3 -8 327 0
3 -8 -327 0
-3 8 -327 0
3 8 327 0
12 14 328 0
-12 14 -328 0
12 -14 -328 0
-12 -14 328 0
15 -16 329 0
-15 -16 -329 0
15 16 -329 0
-15 16 329 0
17 -18 330 0
-17 -18 -330 0
17 18 -330 0
-17 18 330 0
-19 22 331 0
19 22 -331 0
-19 -22 -331 0
19 -22 331 0
-27 28 332 0
27 28 -332 0
-27 -28 -332 0
27 -28 332 0
-29 30 333 0
29 30 -333 0
-29 -30 -333 0
29 -30 333 0
31 -32 334 0
-31 -32 -334 0
31 32 -334 0
-31 32 334 0
-34 35 335 0
34 35 -335 0
-34 -35 -335 0
34 -35 335 0
-36 -42 336 0
36 -42 -336 0
-36 42 -336 0
36 42 336 0
-43 -44 337 0
43 -44 -337 0
-43 44 -337 0
43 44 337 0
45 -46 338 0
-45 -46 -338 0
45 46 -338 0
-45 46 338 0
326 -327 339 0
-326 -327 -339 0
326 327 -339 0
-326 327 339 0
328 -329 340 0
-328 -329 -340 0
328 329 -340 0
-328 329 340 0
330 -331 341 0
-330 -331 -341 0
330 331 -341 0
-330 331 341 0
332 -333 342 0
-332 -333 -342 0
332 333 -342 0
-332 333 342 0
334 -335 343 0
-334 -335 -343 0
334 335 -343 0
-334 335 343 0
336 -337 344 0
-336 -337 -344 0
336 337 -344 0
-336 337 344 0
338 -339 345 0
-338 -339 -345 0
338 339 -345 0
-338 339 345 0
340 -341 346 0
-340 -341 -346 0
340 341 -346 0
-340 341 346 0
342 -343 347 0
-342 -343 -347 0
342 343 -347 0
-342 343 347 0
344 -345 348 0
-344 -345 -348 0
344 345 -348 0
-344 345 348 0
346 -347 349 0
-346 -347 -349 0
346 347 -349 0
-346 347 349 0
348 349 0
-348 -349 0
5 7 350 0
-5 7 -350 0
5 -7 -350 0
-5 -7 350 0
11 -13 351 0
-11 -13 -351 0
11 13 -351 0
-11 13 351 0
14 -19 352 0
-14 -19 -352 0
14 19 -352 0
-14 19 352 0
22 -24 353 0
-22 -24 -353 0
22 24 -353 0
-22 24 353 0
-25 -26 354 0
25 -26 -354 0
-25 26 -354 0
25 26 354 0
28 32 355 0
-28 32 -355 0
28 -32 -355 0
-28 -32 355 0
34 -35 356 0
-34 -35 -356 0
34 35 -356 0
-34 35 356 0
39 40 357 0
-39 40 -357 0
39 -40 -357 0
-39 -40 357 0
41 -42 358 0
-41 -42 -358 0
41 42 -358 0
-41 42 358 0
-44 -45 359 0
44 -45 -359 0
-44 45 -359 0
44 45 359 0
-47 49 360 0
47 49 -360 0
-47 -49 -360 0
47 -49 360 0
350 -351 361 0
-350 -351 -361 0
350 351 -361 0
-350 351 361 0
352 -353 362 0
-352 -353 -362 0
352 353 -362 0
-352 353 362 0
354 -355 363 0
-354 -355 -363 0
354 355 -363 0
-354 355 363 0
356 -357 364 0
-356 -357 -364 0
356 357 -364 0
-356 357 364 0
358 -359 365 0
-358 -359 -365 0
358 359 -365 0
-358 359 365 0
360 -361 366 0
-360 -361 -366 0
360 361 -366 0
-360 361 366 0
362 -363 367 0
-362 -363 -367 0
362 363 -367 0
-362 363 367 0
364 -365 368 0
-364 -365 -368 0
364 365 -368 0
-364 365 368 0
-366 -367 368 0
366 -367 -368 0
-366 367 -368 0
366 367 368 0
-1 -3 369 0
1 -3 -369 0
-1 3 -369 0
1 3 369 0
4 5 370 0
-4 5 -370 0
4 -5 -370 0
-4 -5 370 0
10 13 371 0
-10 13 -371 0
10 -13 -371 0
-10 -13 371 0
14 -16 372 0
-14 -16 -372 0
14 16 -372 0
-14 16 372 0
17 -23 373 0
-17 -23 -373 0
17 23 -373 0
-17 23 373 0
-25 -26 374 0
25 -26 -374 0
-25 26 -374 0
25 26 374 0
-29 30 375 0
29 30 -375 0
-29 -30 -375 0
29 -30 375 0
-31 35 376 0
31 35 -376 0
-31 -35 -376 0
31 -35 376 0
-36 38 377 0
36 38 -377 0
-36 -38 -377 0
36 -38 377 0
-39 -40 378 0
39 -40 -378 0
-39 40 -378 0
39 40 378 0
41 -42 379 0
-41 -42 -379 0
41 42 -379 0
-41 42 379 0
44 -45 380 0
-44 -45 -380 0
44 45 -380 0
-44 45 380 0
368 -369 381 0
-368 -369 -381 0
368 369 -381 0
-368 369 381 0
370 -371 382 0
-370 -371 -382 0
370 371 -382 0
-370 371 382 0
372 -373 383 0
-372 -373 -383 0
372 373 -383 0
-372 373 383 0
374 -375 384 0
-374 -375 -384 0
374 375 -384 0
-374 375 384 0
376 -377 385 0
-376 -377 -385 0
376 377 -385 0
-376 377 385 0
378 -379 386 0
-378 -379 -386 0
378 379 -386 0
-378 379 386 0
380 -381 387 0
-380 -381 -387 0
380 381 -387 0
-380 381 387 0
382 -383 388 0
-382 -383 -388 0
382 383 -388 0
-382 383 388 0
384 -385 389 0
-384 -385 -389 0
384 385 -389 0
-384 385 389 0
386 -387 390 0
-386 -387 -390 0
386 387 -390 0
-386 387 390 0
388 -389 391 0
-388 -389 -391 0
388 389 -391 0
-388 389 391 0
390 391 0
-390 -391 0
-1 -2 392 0
1 -2 -392 0
-1 2 -392 0
1 2 392 0
3 -5 393 0
-3 -5 -393 0
3 5 -393 0
-3 5 393 0
6 -10 394 0
-6 -10 -394 0
6 10 -394 0
-6 10 394 0
16 -18 395 0
-16 -18 -395 0
16 18 -395 0
-16 18 395 0
20 -24 396 0
-20 -24 -396 0
20 24 -396 0
-20 24 396 0
-25 26 397 0
25 26 -397 0
-25 -26 -397 0
25 -26 397 0
-27 -28 398 0
27 -28 -398 0
-27 28 -398 0
27 28 398 0
32 33 399 0
-32 33 -399 0
32 -33 -399 0
-32 -33 399 0
-36 38 400 0
36 38 -400 0
-36 -38 -400 0
36 -38 400 0
39 -40 401 0
-39 -40 -401 0
39 40 -401 0
-39 40 401 0
-44 -47 402 0
44 -47 -402 0
-44 47 -402 0
44 47 402 0
48 50 403 0
-48 50 -403 0
48 -50 -403 0
-48 -50 403 0
392 -393 404 0
-392 -393 -404 0
392 393 -404 0
-392 393 404 0
394 -395 405 0
-394 -395 -405 0
394 395 -405 0
-394 395 405 0
396 -397 406 0
-396 -397 -406 0
396 397 -406 0
-396 397 406 0
398 -399 407 0
-398 -399 -407 0
398 399 -407 0
-398 399 407 0
400 -401 408 0
-400 -401 -408 0
400 401 -408 0
-400 401 408 0
402 -403 409 0
-402 -403 -409 0
402 403 -409 0
-402 403 409 0
404 -405 410 0
-404 -405 -410 0
404 405 -410 0
-404 405 410 0
406 -407 411 0
-406 -407 -411 0
406 407 -411 0
-406 407 411 0
408 -409 412 0
-408 -409 -412 0
408 409 -412 0
-408 409 412 0
-410 -411 412 0
410 -411 -412 0
-410 411 -412 0
410 411 412 0
1 3 413 0
-1 3 -413 0
1 -3 -413 0
-1 -3 413 0
-4 -6 414 0
4 -6 -414 0
-4 6 -414 0
4 6 414 0
-7 -8 415 0
7 -8 -415 0
-7 8 -415 0
7 8 415 0
-9 -12 416 0
9 -12 -416 0
-9 12 -416 0
9 12 416 0
-13 -14 417 0
13 -14 -417 0
-13 14 -417 0
13 14 417 0
15 -17 418 0
-15 -17 -418 0
15 17 -418 0
-15 17 418 0
19 21 419 0
-19 21 -419 0
19 -21 -419 0
-19 -21 419 0
-22 24 420 0
22 24 -420 0
-22 -24 -420 0
22 -24 420 0
-26 29 421 0
26 29 -421 0
-26 -29 -421 0
26 -29 421 0
-30 31 422 0
30 31 -422 0
-30 -31 -422 0
30 -31 422 0
32 -33 423 0
-32 -33 -423 0
32 33 -423 0
-32 33 423 0
34 -36 424 0
-34 -36 -424 0
34 36 -424 0
-34 36 424 0
42 48 425 0
-42 48 -425 0
42 -48 -425 0
-42 -48 425 0
412 -413 426 0
-412 -413 -426 0
412 413 -426 0
-412 413 426 0
414 -415 427 0
-414 -415 -427 0
414 415 -427 0
-414 415 427 0
416 -417 428 0
-416 -417 -428 0
416 417 -428 0
-416 417 428 0
418 -419 429 0
-418 -419 -429 0
418 419 -429 0
-418 419 429 0
420 -421 430 0
-420 -421 -430 0
420 421 -430 0
-420 421 430 0
422 -423 431 0
-422 -423 -431 0
422 423 -431 0
-422 423 431 0
424 -425 432 0
-424 -425 -432 0
424 425 -432 0
-424 425 432 0
426 -427 433 0
-426 -427 -433 0
426 427 -433 0
-426 427 433 0
428 -429 434 0
-428 -429 -434 0
428 429 -434 0
-428 429 434 0
430 -431 435 0
-430 -431 -435 0
430 431 -435 0
-430 431 435 0
432 -433 436 0
-432 -433 -436 0
432 433 -436 0
-432 433 436 0
434 -435 437 0
-434 -435 -437 0
434 435 -437 0
-434 435 437 0
436 437 0
-436 -437 0
1 -2 438 0
-1 -2 -438 0
1 2 -438 0
-1 2 438 0
-4 -5 439 0
4 -5 -439 0
-4 5 -439 0
4 5 439 0
7 9 440 0
-7 9 -440 0
7 -9 -440 0
-7 -9 440 0
-10 -11 441 0
10 -11 -441 0
-10 11 -441 0
10 11 441 0
-12 -14 442 0
12 -14 -442 0
-12 14 -442 0
12 14 442 0
-15 -17 443 0
15 -17 -443 0
-15 17 -443 0
15 17 443 0
-19 21 444 0
19 21 -444 0
-19 -21 -444 0
19 -21 444 0
22 26 445 0
-22 26 -445 0
22 -26 -445 0
-22 -26 445 0
27 -28 446 0
-27 -28 -446 0
27 28 -446 0
-27 28 446 0
30 -32 447 0
-30 -32 -447 0
30 32 -447 0
-30 32 447 0
34 36 448 0
-34 36 -448 0
34 -36 -448 0
-34 -36 448 0
-37 -39 449 0
37 -39 -449 0
-37 39 -449 0
37 39 449 0
-40 -41 450 0
40 -41 -450 0
-40 41 -450 0
40 41 450 0
-42 43 451 0
42 43 -451 0
-42 -43 -451 0
42 -43 451 0
45 46 452 0
-45 46 -452 0
45 -46 -452 0
-45 -46 452 0
-47 49 453 0
47 49 -453 0
-47 -49 -453 0
47 -49 453 0
437 -438 454 0
-437 -438 -454 0
437 438 -454 0
-437 438 454 0
439 -440 455 0
-439 -440 -455 0
439 440 -455 0
-439 440 455 0
441 -442 456 0
-441 -442 -456 0
441 442 -456 0
-441 442 456 0
443 -444 457 0
-443 -444 -457 0
443 444 -457 0
-443 444 457 0
445 -446 458 0
-445 -446 -458 0
445 446 -458 0
-445 446 458 0
447 -448 459 0
-447 -448 -459 0
447 448 -459 0
-447 448 459 0
449 -450 460 0
-449 -450 -460 0
449 450 -460 0
-449 450 460 0
451 -452 461 0
-451 -452 -461 0
451 452 -461 0
-451 452 461 0
453 -454 462 0
-453 -454 -462 0
453 454 -462 0
-453 454 462 0
455 -456 463 0
-455 -456 -463 0
455 456 -463 0
-455 456 463 0
457 -458 464 0
-457 -458 -464 0
457 458 -464 0
-457 458 464 0
459 -460 465 0
-459 -460 -465 0
459 460 -465 0
-459 460 465 0
461 -462 466 0
-461 -462 -466 0
461 462 -466 0
-461 462 466 0
463 -464 467 0
-463 -464 -467 0
463 464 -467 0
-463 464 467 0
-465 -466 467 0
465 -466 -467 0
-465 466 -467 0
465 466 467 0
-2 6 468 0
2 6 -468 0
-2 -6 -468 0
2 -6 468 0
-7 9 469 0
7 9 -469 0
-7 -9 -469 0
7 -9 469 0
-13 -14 470 0
13 -14 -470 0
-13 14 -470 0
13 14 470 0
15 18 471 0
-15 18 -471 0
15 -18 -471 0
-15 -18 471 0
19 -21 472 0
-19 -21 -472 0
19 21 -472 0
-19 21 472 0
23 24 473 0
-23 24 -473 0
23 -24 -473 0
-23 -24 473 0
26 -27 474 0
-26 -27 -474 0
26 27 -474 0
-26 27 474 0
28 30 475 0
-28 30 -475 0
28 -30 -475 0
-28 -30 475 0
38 41 476 0
-38 41 -476 0
38 -41 -476 0
-38 -41 476 0
-43 -45 477 0
43 -45 -477 0
-43 45 -477 0
43 45 477 0
46 47 478 0
-46 47 -478 0
46 -47 -478 0
-46 -47 478 0
467 -468 479 0
-467 -468 -479 0
467 468 -479 0
-467 468 479 0
469 -470 480 0
-469 -470 -480 0
469 470 -480 0
-469 470 480 0
471 -472 481 0
-471 -472 -481 0
471 472 -481 0
-471 472 481 0
473 -474 482 0
-473 -474 -482 0
473 474 -482 0
-473 474 482 0
475 -476 483 0
-475 -476 -483 0
475 476 -483 0
-475 476 483 0
477 -478 484 0
-477 -478 -484 0
477 478 -484 0
-477 478 484 0
479 -480 485 0
-479 -480 -485 0
479 480 -485 0
-479 480 485 0
481 -482 486 0
-481 -482 -486 0
481 482 -486 0
-481 482 486 0
483 -484 487 0
-483 -484 -487 0
483 484 -487 0
-483 484 487 0
-485 -486 487 0
485 -486 -487 0
-485 486 -487 0
485 486 487 0
-12 488 0
-24 488 0
-12 -24 489 0
-23 488 0
-12 -23 489 0
-24 -23 489 0
-12 -24 -23 490 0
-22 491 0
-21 491 0
-22 -21 492 0
-20 491 0
-22 -20 492 0
-21 -20 492 0
-22 -21 -20 493 0
-488 494 0
-489 495 0
-490 496 0
-491 494 0
-492 495 0
-493 496 0
-488 -491 495 0
-488 -492 496 0
-488 -493 497 0
-489 -491 496 0
-489 -492 497 0
-489 -493 498 0
-490 -491 497 0
-490 -492 498 0
-490 -493 499 0
-19 500 0
-18 500 0
-19 -18 501 0
-17 500 0
-19 -17 501 0
-18 -17 501 0
-19 -18 -17 502 0
-16 503 0
-15 503 0
-16 -15 504 0
-14 503 0
-16 -14 504 0
-15 -14 504 0
-16 -15 -14 505 0
-500 506 0
-501 507 0
-502 508 0
-503 506 0
-504 507 0
-505 508 0
-500 -503 507 0
-500 -504 508 0
-500 -505 509 0
-501 -503 508 0
-501 -504 509 0
-501 -505 510 0
-502 -503 509 0
-502 -504 510 0
-502 -505 511 0
-13 512 0
-25 512 0
-13 -25 513 0
-11 512 0
-13 -11 513 0
-25 -11 513 0
-13 -25 -11 514 0
-10 515 0
-9 515 0
-10 -9 516 0
-8 515 0
-10 -8 516 0
-9 -8 516 0
-10 -9 -8 517 0
-512 518 0
-513 519 0
-514 520 0
-515 518 0
-516 519 0
-517 520 0
-512 -515 519 0
-512 -516 520 0
-512 -517 521 0
-513 -515 520 0
-513 -516 521 0
-513 -517 522 0
-514 -515 521 0
-514 -516 522 0
-514 -517 523 0
-7 524 0
-6 524 0
-7 -6 525 0
-5 524 0
-7 -5 525 0
-6 -5 525 0
-7 -6 -5 526 0
-4 527 0
-3 527 0
-4 -3 528 0
-2 529 0
-1 529 0
-2 -1 530 0
-37 529 0
-2 -37 530 0
-1 -37 530 0
-2 -1 -37 531 0
-527 532 0
-528 533 0
-529 532 0
-530 533 0
-531 534 0
-527 -529 533 0
-527 -530 534 0
-527 -531 535 0
-528 -529 534 0
-528 -530 535 0
-528 -531 536 0
-524 537 0
-525 538 0
-526 539 0
-532 537 0
-533 538 0
-534 539 0
-535 540 0
-536 541 0
-524 -532 538 0
-524 -533 539 0
-524 -534 540 0
-524 -535 541 0
-524 -536 542 0
-525 -532 539 0
-525 -533 540 0
-525 -534 541 0
-525 -535 542 0
-525 -536 543 0
-526 -532 540 0
-526 -533 541 0
-526 -534 542 0
-526 -535 543 0
-526 -536 544 0
-49 545 0
-48 545 0
-49 -48 546 0
-47 545 0
-49 -47 546 0
-48 -47 546 0
-49 -48 -47 547 0
-46 548 0
-45 548 0
-46 -45 549 0
-44 550 0
-43 550 0
-44 -43 551 0
-42 550 0
-44 -42 551 0
-43 -42 551 0
-44 -43 -42 552 0
-548 553 0
-549 554 0
-550 553 0
-551 554 0
-552 555 0
-548 -550 554 0
-548 -551 555 0
-548 -552 556 0
-549 -550 555 0
-549 -551 556 0
-549 -552 557 0
-545 558 0
-546 559 0
-547 560 0
-553 558 0
-554 559 0
-555 560 0
-556 561 0
-557 562 0
-545 -553 559 0
-545 -554 560 0
-545 -555 561 0
-545 -556 562 0
-545 -557 563 0
-546 -553 560 0
-546 -554 561 0
-546 -555 562 0
-546 -556 563 0
-546 -557 564 0
-547 -553 561 0
-547 -554 562 0
-547 -555 563 0
-547 -556 564 0
-547 -557 565 0
-41 566 0
-40 566 0
-41 -40 567 0
-39 566 0
-41 -39 567 0
-40 -39 567 0
-41 -40 -39 568 0
-38 569 0
-50 569 0
-38 -50 570 0
-36 571 0
-35 571 0
-36 -35 572 0
-34 571 0
-36 -34 572 0
-35 -34 572 0
-36 -35 -34 573 0
-569 574 0
-570 575 0
-571 574 0
-572 575 0
-573 576 0
-569 -571 575 0
-569 -572 576 0
-569 -573 577 0
-570 -571 576 0
-570 -572 577 0
-570 -573 578 0
-566 579 0
-567 580 0
-568 581 0
-574 579 0
-575 580 0
-576 581 0
-577 582 0
-578 583 0
-566 -574 580 0
-566 -575 581 0
-566 -576 582 0
-566 -577 583 0
-566 -578 584 0
-567 -574 581 0
-567 -575 582 0
-567 -576 583 0
-567 -577 584 0
-567 -578 585 0
-568 -574 582 0
-568 -575 583 0
-568 -576 584 0
-568 -577 585 0
-568 -578 586 0
-33 587 0
-32 587 0
-33 -32 588 0
-31 587 0
-33 -31 588 0
-32 -31 588 0
-33 -32 -31 589 0
-30 590 0
-29 590 0
-30 -29 591 0
-28 592 0
-27 592 0
-28 -27 593 0
-26 592 0
-28 -26 593 0
-27 -26 593 0
-28 -27 -26 594 0
-590 595 0
-591 596 0
-592 595 0
-593 596 0
-594 597 0
-590 -592 596 0
-590 -593 597 0
-590 -594 598 0
-591 -592 597 0
-591 -593 598 0
-591 -594 599 0
-587 600 0
-588 601 0
-589 602 0
-595 600 0
-596 601 0
-597 602 0
-598 603 0
-599 604 0
-587 -595 601 0
-587 -596 602 0
-587 -597 603 0
-587 -598 604 0
-587 -599 605 0
-588 -595 602 0
-588 -596 603 0
-588 -597 604 0
-588 -598 605 0
-588 -599 606 0
-589 -595 603 0
-589 -596 604 0
-589 -597 605 0
-589 -598 606 0
-589 -599 607 0
-579 608 0
-581 609 0
-583 610 0
-585 611 0
-600 608 0
-602 609 0
-604 610 0
-606 611 0
-579 -600 609 0
-579 -602 610 0
-579 -604 611 0
-579 -606 612 0
-581 -600 610 0
-581 -602 611 0
-581 -604 612 0
-581 -606 613 0
-583 -600 611 0
-583 -602 612 0
-583 -604 613 0
-585 -600 612 0
-585 -602 613 0
-580 614 0
-584 615 0
-601 614 0
-605 615 0
-580 -601 615 0
-580 -605 616 0
-584 -601 616 0
-582 617 0
-586 618 0
-603 617 0
-607 618 0
-582 -603 618 0
-615 619 0
-617 619 0
-615 -617 620 0
-616 621 0
-618 621 0
-616 -618 622 0
-609 623 0
-614 623 0
-609 -614 624 0
-610 625 0
-619 625 0
-610 -619 626 0
-611 627 0
-620 627 0
-611 -620 628 0
-612 629 0
-621 629 0
-612 -621 630 0
-613 631 0
-622 631 0
-613 -622 632 0
-558 633 0
-560 634 0
-562 635 0
-564 636 0
-608 633 0
-624 634 0
-626 635 0
-628 636 0
-630 637 0
-632 638 0
-558 -608 634 0
-558 -624 635 0
-558 -626 636 0
-558 -628 637 0
-558 -630 638 0
-560 -608 635 0
-560 -624 636 0
-560 -626 637 0
-560 -628 638 0
-562 -608 636 0
-562 -624 637 0
-562 -626 638 0
-564 -608 637 0
-564 -624 638 0
-559 639 0
-563 640 0
-623 639 0
-627 640 0
-631 641 0
-559 -623 640 0
-559 -627 641 0
-563 -623 641 0
-561 642 0
-565 643 0
-625 642 0
-629 643 0
-561 -625 643 0
-640 644 0
-642 644 0
-640 -642 645 0
-641 646 0
-643 646 0
-641 -643 647 0
-634 648 0
-639 648 0
-634 -639 649 0
-635 650 0
-644 650 0
-635 -644 651 0
-636 652 0
-645 652 0
-636 -645 653 0
-637 654 0
-646 654 0
-637 -646 655 0
-638 656 0
-647 656 0
-638 -647 657 0
-537 658 0
-539 659 0
-541 660 0
-543 661 0
-633 658 0
-649 659 0
-651 660 0
-653 661 0
-655 662 0
-657 663 0
-537 -633 659 0
-537 -649 660 0
-537 -651 661 0
-537 -653 662 0
-537 -655 663 0
-539 -633 660 0
-539 -649 661 0
-539 -651 662 0
-539 -653 663 0
-541 -633 661 0
-541 -649 662 0
-541 -651 663 0
-543 -633 662 0
-543 -649 663 0
-538 664 0
-542 665 0
-648 664 0
-652 665 0
-656 666 0
-538 -648 665 0
-538 -652 666 0
-542 -648 666 0
-540 667 0
-544 668 0
-650 667 0
-654 668 0
-540 -650 668 0
-665 669 0
-667 669 0
-665 -667 670 0
-666 671 0
-668 671 0
-666 -668 672 0
-659 673 0
-664 673 0
-659 -664 674 0
-660 675 0
-669 675 0
-660 -669 676 0
-661 677 0
-670 677 0
-661 -670 678 0
-662 679 0
-671 679 0
-662 -671 680 0
-663 681 0
-672 681 0
-663 -672 682 0
-518 683 0
-520 684 0
-522 685 0
-658 683 0
-674 684 0
-676 685 0
-678 686 0
-680 687 0
-682 688 0
-518 -658 684 0
-518 -674 685 0
-518 -676 686 0
-518 -678 687 0
-518 -680 688 0
-520 -658 685 0
-520 -674 686 0
-520 -676 687 0
-520 -678 688 0
-522 -658 686 0
-522 -674 687 0
-522 -676 688 0
-519 689 0
-521 690 0
-523 691 0
-673 689 0
-675 690 0
-677 691 0
-679 692 0
-681 693 0
-519 -673 690 0
-519 -675 691 0
-519 -677 692 0
-519 -679 693 0
-521 -673 691 0
-521 -675 692 0
-521 -677 693 0
-523 -673 692 0
-523 -675 693 0
-684 694 0
-689 694 0
-684 -689 695 0
-685 696 0
-690 696 0
-685 -690 697 0
-686 698 0
-691 698 0
-686 -691 699 0
-687 700 0
-692 700 0
-687 -692 701 0
-688 702 0
-693 702 0
-688 -693 703 0
-506 704 0
-508 705 0
-510 706 0
-683 704 0
-695 705 0
-697 706 0
-699 707 0
-701 708 0
-703 709 0
-506 -683 705 0
-506 -695 706 0
-506 -697 707 0
-506 -699 708 0
-506 -701 709 0
-508 -683 706 0
-508 -695 707 0
-508 -697 708 0
-508 -699 709 0
-510 -683 707 0
-510 -695 708 0
-510 -697 709 0
-507 710 0
-509 711 0
-511 712 0
-694 710 0
-696 711 0
-698 712 0
-700 713 0
-702 714 0
-507 -694 711 0
-507 -696 712 0
-507 -698 713 0
-507 -700 714 0
-509 -694 712 0
-509 -696 713 0
-509 -698 714 0
-511 -694 713 0
-511 -696 714 0
-705 715 0
-710 715 0
-705 -710 716 0
-706 717 0
-711 717 0
-706 -711 718 0
-707 719 0
-712 719 0
-707 -712 720 0
-708 721 0
-713 721 0
-708 -713 722 0
-709 723 0
-714 723 0
-709 -714 724 0
-494 725 0
-496 726 0
-498 727 0
-704 725 0
-716 726 0
-718 727 0
-720 728 0
-722 729 0
-724 730 0
-494 -704 726 0
-494 -716 727 0
-494 -718 728 0
-494 -720 729 0
-494 -722 730 0
-496 -704 727 0
-496 -716 728 0
-496 -718 729 0
-496 -720 730 0
-498 -704 728 0
-498 -716 729 0
-498 -718 730 0
-495 731 0
-497 732 0
-499 733 0
-715 731 0
-717 732 0
-719 733 0
-721 734 0
-723 735 0
-495 -715 732 0
-495 -717 733 0
-495 -719 734 0
-495 -721 735 0
-497 -715 733 0
-497 -717 734 0
-497 -719 735 0
-499 -715 734 0
-499 -717 735 0
-726 736 0
-731 736 0
-726 -731 737 0
-727 738 0
-732 738 0
-727 -732 739 0
-728 740 0
-733 740 0
-728 -733 741 0
-729 742 0
-734 742 0
-729 -734 743 0
-730 744 0
-735 744 0
-730 -735 745 0
-745 0
